[[24, 49, 16, 63, 23, 56, 43, 41, 42, 64, 22, 73, 33, 62, 2, 30, 74, 28, 61, 21, 48, 47, 36, 69, 71, 60, 70, 20, 37, 5, 29, 15, 57, 13, 54, 27, 52], [45, 4, 75, 68, 6, 51, 17, 76, 26, 67, 34, 46, 8, 7, 35, 19, 53, 14, 59, 11, 66, 65, 38, 10, 31, 58, 72, 39, 12, 40, 9, 32, 25, 55, 18, 50, 44, 3]]